NAME          BLANK   
ROWS
 N  OBJROW
 N  R0000000
 L  R0000001
 N  R0000002
 G  R0000003
COLUMNS
    C0000000  OBJROW    1.             R0000000   -1.        
    C0000000  R0000001   -1.           R0000002  1.          
    C0000000  R0000003  1.          
RHS
    RHS       R0000001   -2.        
RANGES
    RANGE     R0000001  2.          
ENDATA
